VALUE 73
143 13
2262 143
196 316
1097 490
490 558
143 608
937 2029
1059 2196
1924 1097
1759 2129
1856 558
13 1919
1924 316
2033 1976
1059 2029
1856 2033
1856 2097
2414 2129
2196 608
2262 2097
2332 1919
2414 143
2332 2469

